17	4
13	23	13	25	
0	0	0	0	0	3	2	3	4	
3	2	0	5	5	1	9	
3	0	0	2	2	3	6	7	15	
8	0	7	6	4	2	5	12	
6	0	10	0	4	2	8	10	
200	2	0	0	7	2	17	17	
200	0	10	3	5	2	13	17	
125	4	10	1	0	3	17	17	17	
100	0	8	0	9	2	14	17	
200	0	0	5	0	1	11	
225	0	8	4	0	3	16	17	17	
75	2	0	10	0	1	17	
5	10	0	8	8	1	16	
10	0	1	0	0	2	17	17	
3	8	3	2	0	1	17	
4	0	2	0	0	1	17	
0	0	0	0	0	0	
